16
1 1 1 1 1 1 1 1 1 1 1 1 1 1 1 1 1 1 1 1
2 2 2 2 2 2 2 2 2 2 2 2 2 2 2 2 2 2 2
1 1
2
1 1 2 2 3 3 4 4 5 5 6 6 7 7 8 8 9 9 10 10
1 1 2 2 3 3 4 4 5 5 6 6 7 7 8 8 9 9 10
1 2 3 5 7 11 13 17 23
1 2 3 5 7 11 13 17 23 29
1 2 3 5 7 11 13 17 23 29 31
1 2 3 5 7 11 13 17 23 29 31 37
10 20 30 40 50 50
1 15 25 35 45 55
1 2 3 4 5 6 7 8 9 10 11 12 13 91
1 1 2 3 4 5 6 7 8 9 10 11 12 13 90
1 2 3 4 5 6 7 8 9 10 11 12 13 42 49
1 2 3 4 5 6 7 8 9 10 11 12 13 93
